NAME : cgl_72.7664.tour
COMMENT : Length = 7664
COMMENT : Found by LKH-3 [Keld Helsgaun] Fri Nov  8 17:38:20 2024
TYPE : TOUR
DIMENSION : 73
TOUR_SECTION
34
37
36
33
38
42
41
40
35
39
43
46
45
44
47
48
24
11
17
19
9
18
15
23
14
22
13
10
20
16
12
8
21
25
7
50
49
51
3
6
1
5
2
4
52
53
54
56
55
64
58
63
62
61
60
59
57
66
67
65
72
69
68
70
71
73
27
26
28
29
30
31
32
-1
EOF
